sat
(:max-memory                   18.29
 :memory                       18.02
 :nlsat-conflicts              5
 :nlsat-decisions              3
 :nlsat-irrational-assignments 1
 :nlsat-learned-added          5
 :nlsat-propagations           30
 :nlsat-stages                 8
 :num-allocs                   28801
 :rlimit-count                 36525
 :time                         0.04
 :total-time                   0.05)
